p tw 176 39601 2 
1 90 
1 91 
1 93 
1 95 
1 97 
1 99 
1 102 
1 103 
1 105 
1 108 
1 109 
1 112 
1 113 
1 115 
1 117 
1 119 
1 122 
1 123 
1 126 
1 127 
1 129 
1 131 
1 134 
1 136 
1 138 
1 139 
1 141 
1 143 
1 145 
1 147 
1 149 
1 151 
1 154 
1 156 
1 157 
1 159 
1 161 
1 163 
1 165 
1 167 
1 170 
1 172 
1 173 
1 175 
2 89 
2 92 
2 94 
2 96 
2 98 
2 100 
2 101 
2 104 
2 106 
2 107 
2 110 
2 111 
2 114 
2 116 
2 118 
2 120 
2 121 
2 124 
2 125 
2 128 
2 130 
2 132 
2 133 
2 135 
2 137 
2 140 
2 142 
2 144 
2 146 
2 148 
2 150 
2 152 
2 153 
2 155 
2 158 
2 160 
2 162 
2 164 
2 166 
2 168 
2 169 
2 171 
2 174 
2 176 
3 4 
3 90 
3 92 
3 94 
3 96 
3 97 
3 99 
3 102 
3 104 
3 106 
3 108 
3 109 
3 111 
3 113 
3 116 
3 117 
3 119 
3 122 
3 123 
3 126 
3 128 
3 130 
3 132 
3 133 
3 135 
3 138 
3 139 
3 142 
3 143 
3 145 
3 147 
3 150 
3 152 
3 153 
3 155 
3 157 
3 160 
3 162 
3 163 
3 166 
3 167 
3 169 
3 172 
3 173 
3 176 
4 89 
4 91 
4 93 
4 95 
4 98 
4 100 
4 101 
4 103 
4 105 
4 107 
4 110 
4 112 
4 114 
4 115 
4 118 
4 120 
4 121 
4 124 
4 125 
4 127 
4 129 
4 131 
4 134 
4 136 
4 137 
4 140 
4 141 
4 144 
4 146 
4 148 
4 149 
4 151 
4 154 
4 156 
4 158 
4 159 
4 161 
4 164 
4 165 
4 168 
4 170 
4 171 
4 174 
4 175 
5 6 
5 90 
5 92 
5 93 
5 95 
5 98 
5 100 
5 102 
5 104 
5 106 
5 108 
5 110 
5 112 
5 113 
5 116 
5 117 
5 120 
5 122 
5 124 
5 125 
5 128 
5 130 
5 132 
5 134 
5 136 
5 138 
5 139 
5 141 
5 144 
5 146 
5 148 
5 150 
5 152 
5 154 
5 156 
5 158 
5 160 
5 161 
5 163 
5 166 
5 167 
5 170 
5 172 
5 174 
5 175 
6 89 
6 91 
6 94 
6 96 
6 97 
6 99 
6 101 
6 103 
6 105 
6 107 
6 109 
6 111 
6 114 
6 115 
6 118 
6 119 
6 121 
6 123 
6 126 
6 127 
6 129 
6 131 
6 133 
6 135 
6 137 
6 140 
6 142 
6 143 
6 145 
6 147 
6 149 
6 151 
6 153 
6 155 
6 157 
6 159 
6 162 
6 164 
6 165 
6 168 
6 169 
6 171 
6 173 
6 176 
7 8 
7 90 
7 91 
7 93 
7 96 
7 97 
7 100 
7 101 
7 103 
7 106 
7 108 
7 110 
7 111 
7 113 
7 115 
7 118 
7 120 
7 122 
7 124 
7 126 
7 127 
7 129 
7 132 
7 133 
7 135 
7 137 
7 140 
7 141 
7 144 
7 145 
7 147 
7 150 
7 152 
7 154 
7 155 
7 158 
7 160 
7 161 
7 163 
7 165 
7 167 
7 170 
7 171 
7 173 
7 176 
8 89 
8 92 
8 94 
8 95 
8 98 
8 99 
8 102 
8 104 
8 105 
8 107 
8 109 
8 112 
8 114 
8 116 
8 117 
8 119 
8 121 
8 123 
8 125 
8 128 
8 130 
8 131 
8 134 
8 136 
8 138 
8 139 
8 142 
8 143 
8 146 
8 148 
8 149 
8 151 
8 153 
8 156 
8 157 
8 159 
8 162 
8 164 
8 166 
8 168 
8 169 
8 172 
8 174 
8 175 
9 10 
9 90 
9 92 
9 94 
9 96 
9 97 
9 99 
9 102 
9 104 
9 105 
9 108 
9 110 
9 112 
9 114 
9 116 
9 118 
9 119 
9 122 
9 124 
9 126 
9 127 
9 129 
9 132 
9 134 
9 136 
9 137 
9 140 
9 142 
9 143 
9 146 
9 148 
9 150 
9 152 
9 154 
9 156 
9 158 
9 159 
9 162 
9 164 
9 165 
9 168 
9 170 
9 172 
9 173 
9 176 
10 89 
10 91 
10 93 
10 95 
10 98 
10 100 
10 101 
10 103 
10 106 
10 107 
10 109 
10 111 
10 113 
10 115 
10 117 
10 120 
10 121 
10 123 
10 125 
10 128 
10 130 
10 131 
10 133 
10 135 
10 138 
10 139 
10 141 
10 144 
10 145 
10 147 
10 149 
10 151 
10 153 
10 155 
10 157 
10 160 
10 161 
10 163 
10 166 
10 167 
10 169 
10 171 
10 174 
10 175 
11 12 
11 89 
11 92 
11 93 
11 95 
11 98 
11 100 
11 101 
11 103 
11 105 
11 108 
11 110 
11 111 
11 114 
11 116 
11 118 
11 120 
11 122 
11 124 
11 126 
11 127 
11 130 
11 131 
11 133 
11 135 
11 138 
11 139 
11 142 
11 143 
11 145 
11 148 
11 149 
11 151 
11 154 
11 156 
11 158 
11 159 
11 162 
11 163 
11 166 
11 167 
11 169 
11 172 
11 173 
11 176 
12 90 
12 91 
12 94 
12 96 
12 97 
12 99 
12 102 
12 104 
12 106 
12 107 
12 109 
12 112 
12 113 
12 115 
12 117 
12 119 
12 121 
12 123 
12 125 
12 128 
12 129 
12 132 
12 134 
12 136 
12 137 
12 140 
12 141 
12 144 
12 146 
12 147 
12 150 
12 152 
12 153 
12 155 
12 157 
12 160 
12 161 
12 164 
12 165 
12 168 
12 170 
12 171 
12 174 
12 175 
13 14 
13 89 
13 91 
13 94 
13 96 
13 98 
13 100 
13 101 
13 104 
13 106 
13 107 
13 110 
13 112 
13 114 
13 115 
13 117 
13 119 
13 122 
13 123 
13 126 
13 127 
13 130 
13 132 
13 133 
13 135 
13 138 
13 139 
13 141 
13 143 
13 146 
13 147 
13 149 
13 152 
13 153 
13 156 
13 158 
13 159 
13 161 
13 164 
13 165 
13 167 
13 170 
13 172 
13 174 
13 176 
14 90 
14 92 
14 93 
14 95 
14 97 
14 99 
14 102 
14 103 
14 105 
14 108 
14 109 
14 111 
14 113 
14 116 
14 118 
14 120 
14 121 
14 124 
14 125 
14 128 
14 129 
14 131 
14 134 
14 136 
14 137 
14 140 
14 142 
14 144 
14 145 
14 148 
14 150 
14 151 
14 154 
14 155 
14 157 
14 160 
14 162 
14 163 
14 166 
14 168 
14 169 
14 171 
14 173 
14 175 
15 16 
15 89 
15 91 
15 93 
15 96 
15 97 
15 100 
15 101 
15 104 
15 106 
15 108 
15 110 
15 111 
15 113 
15 116 
15 118 
15 119 
15 121 
15 123 
15 126 
15 128 
15 130 
15 131 
15 134 
15 136 
15 138 
15 140 
15 141 
15 144 
15 146 
15 148 
15 149 
15 152 
15 154 
15 155 
15 157 
15 159 
15 162 
15 164 
15 165 
15 167 
15 169 
15 172 
15 173 
15 175 
16 90 
16 92 
16 94 
16 95 
16 98 
16 99 
16 102 
16 103 
16 105 
16 107 
16 109 
16 112 
16 114 
16 115 
16 117 
16 120 
16 122 
16 124 
16 125 
16 127 
16 129 
16 132 
16 133 
16 135 
16 137 
16 139 
16 142 
16 143 
16 145 
16 147 
16 150 
16 151 
16 153 
16 156 
16 158 
16 160 
16 161 
16 163 
16 166 
16 168 
16 170 
16 171 
16 174 
16 176 
17 18 
17 89 
17 91 
17 94 
17 96 
17 97 
17 99 
17 101 
17 103 
17 105 
17 108 
17 110 
17 112 
17 113 
17 115 
17 117 
17 119 
17 122 
17 124 
17 125 
17 127 
17 130 
17 131 
17 134 
17 136 
17 138 
17 139 
17 142 
17 144 
17 146 
17 148 
17 150 
17 151 
17 153 
17 155 
17 158 
17 160 
17 162 
17 163 
17 165 
17 167 
17 169 
17 171 
17 174 
17 176 
18 90 
18 92 
18 93 
18 95 
18 98 
18 100 
18 102 
18 104 
18 106 
18 107 
18 109 
18 111 
18 114 
18 116 
18 118 
18 120 
18 121 
18 123 
18 126 
18 128 
18 129 
18 132 
18 133 
18 135 
18 137 
18 140 
18 141 
18 143 
18 145 
18 147 
18 149 
18 152 
18 154 
18 156 
18 157 
18 159 
18 161 
18 164 
18 166 
18 168 
18 170 
18 172 
18 173 
18 175 
19 20 
19 89 
19 92 
19 93 
19 96 
19 97 
19 99 
19 101 
19 104 
19 106 
19 107 
19 110 
19 112 
19 113 
19 116 
19 117 
19 120 
19 121 
19 123 
19 126 
19 127 
19 129 
19 131 
19 133 
19 136 
19 137 
19 140 
19 142 
19 144 
19 145 
19 148 
19 150 
19 151 
19 153 
19 156 
19 157 
19 159 
19 161 
19 163 
19 166 
19 167 
19 170 
19 172 
19 174 
19 176 
20 90 
20 91 
20 94 
20 95 
20 98 
20 100 
20 102 
20 103 
20 105 
20 108 
20 109 
20 111 
20 114 
20 115 
20 118 
20 119 
20 122 
20 124 
20 125 
20 128 
20 130 
20 132 
20 134 
20 135 
20 138 
20 139 
20 141 
20 143 
20 146 
20 147 
20 149 
20 152 
20 154 
20 155 
20 158 
20 160 
20 162 
20 164 
20 165 
20 168 
20 169 
20 171 
20 173 
20 175 
21 22 
21 89 
21 91 
21 93 
21 96 
21 98 
21 99 
21 102 
21 103 
21 106 
21 107 
21 109 
21 111 
21 114 
21 115 
21 117 
21 120 
21 121 
21 123 
21 126 
21 127 
21 129 
21 132 
21 133 
21 136 
21 138 
21 139 
21 142 
21 144 
21 146 
21 148 
21 150 
21 152 
21 154 
21 156 
21 158 
21 160 
21 162 
21 163 
21 165 
21 168 
21 169 
21 172 
21 173 
21 175 
22 90 
22 92 
22 94 
22 95 
22 97 
22 100 
22 101 
22 104 
22 105 
22 108 
22 110 
22 112 
22 113 
22 116 
22 118 
22 119 
22 122 
22 124 
22 125 
22 128 
22 130 
22 131 
22 134 
22 135 
22 137 
22 140 
22 141 
22 143 
22 145 
22 147 
22 149 
22 151 
22 153 
22 155 
22 157 
22 159 
22 161 
22 164 
22 166 
22 167 
22 170 
22 171 
22 174 
22 176 
23 24 
23 89 
23 92 
23 94 
23 96 
23 98 
23 99 
23 101 
23 104 
23 105 
23 108 
23 109 
23 111 
23 113 
23 115 
23 118 
23 120 
23 122 
23 123 
23 125 
23 128 
23 129 
23 132 
23 133 
23 135 
23 138 
23 140 
23 141 
23 143 
23 146 
23 148 
23 150 
23 151 
23 154 
23 156 
23 157 
23 159 
23 162 
23 163 
23 165 
23 167 
23 170 
23 171 
23 174 
23 175 
24 90 
24 91 
24 93 
24 95 
24 97 
24 100 
24 102 
24 103 
24 106 
24 107 
24 110 
24 112 
24 114 
24 116 
24 117 
24 119 
24 121 
24 124 
24 126 
24 127 
24 130 
24 131 
24 134 
24 136 
24 137 
24 139 
24 142 
24 144 
24 145 
24 147 
24 149 
24 152 
24 153 
24 155 
24 158 
24 160 
24 161 
24 164 
24 166 
24 168 
24 169 
24 172 
24 173 
24 176 
25 26 
25 89 
25 92 
25 94 
25 95 
25 97 
25 99 
25 101 
25 104 
25 106 
25 107 
25 109 
25 112 
25 113 
25 115 
25 117 
25 120 
25 122 
25 124 
25 126 
25 127 
25 130 
25 131 
25 133 
25 136 
25 138 
25 140 
25 141 
25 143 
25 145 
25 148 
25 149 
25 152 
25 154 
25 155 
25 158 
25 160 
25 162 
25 164 
25 166 
25 168 
25 170 
25 171 
25 173 
25 175 
26 90 
26 91 
26 93 
26 96 
26 98 
26 100 
26 102 
26 103 
26 105 
26 108 
26 110 
26 111 
26 114 
26 116 
26 118 
26 119 
26 121 
26 123 
26 125 
26 128 
26 129 
26 132 
26 134 
26 135 
26 137 
26 139 
26 142 
26 144 
26 146 
26 147 
26 150 
26 151 
26 153 
26 156 
26 157 
26 159 
26 161 
26 163 
26 165 
26 167 
26 169 
26 172 
26 174 
26 176 
27 28 
27 89 
27 91 
27 94 
27 95 
27 97 
27 99 
27 101 
27 103 
27 105 
27 107 
27 110 
27 111 
27 113 
27 116 
27 118 
27 120 
27 122 
27 124 
27 125 
27 128 
27 130 
27 132 
27 133 
27 136 
27 138 
27 139 
27 142 
27 144 
27 145 
27 147 
27 150 
27 152 
27 153 
27 156 
27 157 
27 159 
27 161 
27 164 
27 165 
27 168 
27 170 
27 172 
27 173 
27 175 
28 90 
28 92 
28 93 
28 96 
28 98 
28 100 
28 102 
28 104 
28 106 
28 108 
28 109 
28 112 
28 114 
28 115 
28 117 
28 119 
28 121 
28 123 
28 126 
28 127 
28 129 
28 131 
28 134 
28 135 
28 137 
28 140 
28 141 
28 143 
28 146 
28 148 
28 149 
28 151 
28 154 
28 155 
28 158 
28 160 
28 162 
28 163 
28 166 
28 167 
28 169 
28 171 
28 174 
28 176 
29 30 
29 90 
29 92 
29 94 
29 95 
29 97 
29 100 
29 101 
29 104 
29 105 
29 107 
29 109 
29 111 
29 114 
29 115 
29 118 
29 120 
29 121 
29 123 
29 125 
29 127 
29 129 
29 131 
29 134 
29 136 
29 138 
29 139 
29 141 
29 144 
29 146 
29 147 
29 150 
29 152 
29 153 
29 155 
29 158 
29 159 
29 162 
29 163 
29 166 
29 167 
29 170 
29 172 
29 173 
29 176 
30 89 
30 91 
30 93 
30 96 
30 98 
30 99 
30 102 
30 103 
30 106 
30 108 
30 110 
30 112 
30 113 
30 116 
30 117 
30 119 
30 122 
30 124 
30 126 
30 128 
30 130 
30 132 
30 133 
30 135 
30 137 
30 140 
30 142 
30 143 
30 145 
30 148 
30 149 
30 151 
30 154 
30 156 
30 157 
30 160 
30 161 
30 164 
30 165 
30 168 
30 169 
30 171 
30 174 
30 175 
31 32 
31 90 
31 92 
31 93 
31 96 
31 98 
31 99 
31 102 
31 104 
31 105 
31 107 
31 110 
31 111 
31 114 
31 115 
31 118 
31 119 
31 122 
31 124 
31 126 
31 127 
31 130 
31 131 
31 133 
31 136 
31 138 
31 140 
31 141 
31 144 
31 146 
31 147 
31 150 
31 151 
31 153 
31 156 
31 157 
31 160 
31 161 
31 164 
31 166 
31 167 
31 169 
31 171 
31 173 
31 175 
32 89 
32 91 
32 94 
32 95 
32 97 
32 100 
32 101 
32 103 
32 106 
32 108 
32 109 
32 112 
32 113 
32 116 
32 117 
32 120 
32 121 
32 123 
32 125 
32 128 
32 129 
32 132 
32 134 
32 135 
32 137 
32 139 
32 142 
32 143 
32 145 
32 148 
32 149 
32 152 
32 154 
32 155 
32 158 
32 159 
32 162 
32 163 
32 165 
32 168 
32 170 
32 172 
32 174 
32 176 
33 34 
33 89 
33 92 
33 93 
33 95 
33 97 
33 100 
33 101 
33 104 
33 106 
33 107 
33 109 
33 112 
33 113 
33 115 
33 118 
33 119 
33 121 
33 124 
33 125 
33 127 
33 130 
33 132 
33 134 
33 135 
33 138 
33 140 
33 142 
33 143 
33 146 
33 147 
33 150 
33 151 
33 154 
33 156 
33 157 
33 160 
33 161 
33 163 
33 165 
33 168 
33 169 
33 172 
33 173 
33 176 
34 90 
34 91 
34 94 
34 96 
34 98 
34 99 
34 102 
34 103 
34 105 
34 108 
34 110 
34 111 
34 114 
34 116 
34 117 
34 120 
34 122 
34 123 
34 126 
34 128 
34 129 
34 131 
34 133 
34 136 
34 137 
34 139 
34 141 
34 144 
34 145 
34 148 
34 149 
34 152 
34 153 
34 155 
34 158 
34 159 
34 162 
34 164 
34 166 
34 167 
34 170 
34 171 
34 174 
34 175 
35 36 
35 89 
35 92 
35 94 
35 95 
35 98 
35 100 
35 101 
35 103 
35 106 
35 108 
35 110 
35 111 
35 113 
35 115 
35 117 
35 119 
35 122 
35 123 
35 126 
35 128 
35 129 
35 131 
35 134 
35 136 
35 137 
35 140 
35 142 
35 143 
35 146 
35 147 
35 150 
35 152 
35 153 
35 156 
35 158 
35 159 
35 161 
35 163 
35 166 
35 168 
35 169 
35 171 
35 173 
35 175 
36 90 
36 91 
36 93 
36 96 
36 97 
36 99 
36 102 
36 104 
36 105 
36 107 
36 109 
36 112 
36 114 
36 116 
36 118 
36 120 
36 121 
36 124 
36 125 
36 127 
36 130 
36 132 
36 133 
36 135 
36 138 
36 139 
36 141 
36 144 
36 145 
36 148 
36 149 
36 151 
36 154 
36 155 
36 157 
36 160 
36 162 
36 164 
36 165 
36 167 
36 170 
36 172 
36 174 
36 176 
37 38 
37 89 
37 91 
37 93 
37 95 
37 98 
37 99 
37 102 
37 104 
37 106 
37 107 
37 110 
37 111 
37 113 
37 115 
37 118 
37 119 
37 121 
37 124 
37 126 
37 128 
37 129 
37 132 
37 134 
37 136 
37 138 
37 139 
37 142 
37 143 
37 145 
37 147 
37 150 
37 151 
37 154 
37 155 
37 158 
37 159 
37 162 
37 164 
37 166 
37 167 
37 170 
37 171 
37 174 
37 176 
38 90 
38 92 
38 94 
38 96 
38 97 
38 100 
38 101 
38 103 
38 105 
38 108 
38 109 
38 112 
38 114 
38 116 
38 117 
38 120 
38 122 
38 123 
38 125 
38 127 
38 130 
38 131 
38 133 
38 135 
38 137 
38 140 
38 141 
38 144 
38 146 
38 148 
38 149 
38 152 
38 153 
38 156 
38 157 
38 160 
38 161 
38 163 
38 165 
38 168 
38 169 
38 172 
38 173 
38 175 
39 40 
39 89 
39 92 
39 93 
39 95 
39 98 
39 100 
39 101 
39 104 
39 105 
39 108 
39 109 
39 112 
39 113 
39 116 
39 118 
39 119 
39 122 
39 123 
39 126 
39 127 
39 129 
39 132 
39 133 
39 136 
39 137 
39 139 
39 141 
39 144 
39 145 
39 147 
39 150 
39 151 
39 153 
39 155 
39 158 
39 160 
39 162 
39 164 
39 165 
39 168 
39 169 
39 172 
39 174 
39 175 
40 90 
40 91 
40 94 
40 96 
40 97 
40 99 
40 102 
40 103 
40 106 
40 107 
40 110 
40 111 
40 114 
40 115 
40 117 
40 120 
40 121 
40 124 
40 125 
40 128 
40 130 
40 131 
40 134 
40 135 
40 138 
40 140 
40 142 
40 143 
40 146 
40 148 
40 149 
40 152 
40 154 
40 156 
40 157 
40 159 
40 161 
40 163 
40 166 
40 167 
40 170 
40 171 
40 173 
40 176 
41 42 
41 90 
41 91 
41 94 
41 96 
41 98 
41 100 
41 101 
41 103 
41 105 
41 107 
41 109 
41 112 
41 113 
41 116 
41 118 
41 119 
41 121 
41 124 
41 126 
41 128 
41 129 
41 132 
41 133 
41 136 
41 138 
41 140 
41 142 
41 143 
41 146 
41 148 
41 149 
41 151 
41 153 
41 155 
41 158 
41 160 
41 161 
41 163 
41 166 
41 167 
41 170 
41 172 
41 173 
41 175 
42 89 
42 92 
42 93 
42 95 
42 97 
42 99 
42 102 
42 104 
42 106 
42 108 
42 110 
42 111 
42 114 
42 115 
42 117 
42 120 
42 122 
42 123 
42 125 
42 127 
42 130 
42 131 
42 134 
42 135 
42 137 
42 139 
42 141 
42 144 
42 145 
42 147 
42 150 
42 152 
42 154 
42 156 
42 157 
42 159 
42 162 
42 164 
42 165 
42 168 
42 169 
42 171 
42 174 
42 176 
43 44 
43 89 
43 91 
43 94 
43 95 
43 97 
43 100 
43 102 
43 103 
43 106 
43 107 
43 109 
43 112 
43 114 
43 116 
43 118 
43 119 
43 122 
43 124 
43 126 
43 127 
43 129 
43 132 
43 134 
43 135 
43 138 
43 140 
43 141 
43 144 
43 145 
43 148 
43 150 
43 152 
43 153 
43 156 
43 157 
43 159 
43 162 
43 163 
43 166 
43 167 
43 169 
43 171 
43 174 
43 175 
44 90 
44 92 
44 93 
44 96 
44 98 
44 99 
44 101 
44 104 
44 105 
44 108 
44 110 
44 111 
44 113 
44 115 
44 117 
44 120 
44 121 
44 123 
44 125 
44 128 
44 130 
44 131 
44 133 
44 136 
44 137 
44 139 
44 142 
44 143 
44 146 
44 147 
44 149 
44 151 
44 154 
44 155 
44 158 
44 160 
44 161 
44 164 
44 165 
44 168 
44 170 
44 172 
44 173 
44 176 
45 46 
45 90 
45 91 
45 93 
45 95 
45 98 
45 99 
45 101 
45 104 
45 105 
45 108 
45 109 
45 111 
45 113 
45 115 
45 117 
45 120 
45 122 
45 124 
45 126 
45 127 
45 129 
45 132 
45 134 
45 135 
45 138 
45 140 
45 142 
45 144 
45 146 
45 148 
45 149 
45 152 
45 153 
45 155 
45 157 
45 159 
45 161 
45 164 
45 166 
45 168 
45 169 
45 172 
45 174 
45 176 
46 89 
46 92 
46 94 
46 96 
46 97 
46 100 
46 102 
46 103 
46 106 
46 107 
46 110 
46 112 
46 114 
46 116 
46 118 
46 119 
46 121 
46 123 
46 125 
46 128 
46 130 
46 131 
46 133 
46 136 
46 137 
46 139 
46 141 
46 143 
46 145 
46 147 
46 150 
46 151 
46 154 
46 156 
46 158 
46 160 
46 162 
46 163 
46 165 
46 167 
46 170 
46 171 
46 173 
46 175 
47 48 
47 90 
47 92 
47 94 
47 96 
47 98 
47 100 
47 101 
47 104 
47 105 
47 107 
47 110 
47 111 
47 113 
47 116 
47 117 
47 119 
47 121 
47 124 
47 126 
47 127 
47 129 
47 131 
47 134 
47 135 
47 138 
47 139 
47 142 
47 144 
47 145 
47 147 
47 149 
47 152 
47 154 
47 156 
47 157 
47 160 
47 162 
47 163 
47 165 
47 168 
47 170 
47 171 
47 174 
47 175 
48 89 
48 91 
48 93 
48 95 
48 97 
48 99 
48 102 
48 103 
48 106 
48 108 
48 109 
48 112 
48 114 
48 115 
48 118 
48 120 
48 122 
48 123 
48 125 
48 128 
48 130 
48 132 
48 133 
48 136 
48 137 
48 140 
48 141 
48 143 
48 146 
48 148 
48 150 
48 151 
48 153 
48 155 
48 158 
48 159 
48 161 
48 164 
48 166 
48 167 
48 169 
48 172 
48 173 
48 176 
49 50 
49 90 
49 92 
49 94 
49 95 
49 98 
49 99 
49 102 
49 103 
49 105 
49 107 
49 110 
49 112 
49 113 
49 115 
49 118 
49 119 
49 121 
49 123 
49 126 
49 128 
49 130 
49 131 
49 133 
49 135 
49 138 
49 140 
49 141 
49 144 
49 145 
49 148 
49 150 
49 152 
49 154 
49 155 
49 158 
49 159 
49 161 
49 163 
49 165 
49 168 
49 169 
49 172 
49 174 
49 176 
50 89 
50 91 
50 93 
50 96 
50 97 
50 100 
50 101 
50 104 
50 106 
50 108 
50 109 
50 111 
50 114 
50 116 
50 117 
50 120 
50 122 
50 124 
50 125 
50 127 
50 129 
50 132 
50 134 
50 136 
50 137 
50 139 
50 142 
50 143 
50 146 
50 147 
50 149 
50 151 
50 153 
50 156 
50 157 
50 160 
50 162 
50 164 
50 166 
50 167 
50 170 
50 171 
50 173 
50 175 
51 52 
51 89 
51 91 
51 94 
51 96 
51 97 
51 100 
51 102 
51 104 
51 105 
51 108 
51 109 
51 112 
51 113 
51 116 
51 117 
51 120 
51 121 
51 124 
51 126 
51 128 
51 129 
51 131 
51 133 
51 135 
51 138 
51 139 
51 141 
51 144 
51 146 
51 147 
51 150 
51 151 
51 154 
51 156 
51 158 
51 159 
51 161 
51 164 
51 166 
51 168 
51 169 
51 171 
51 173 
51 176 
52 90 
52 92 
52 93 
52 95 
52 98 
52 99 
52 101 
52 103 
52 106 
52 107 
52 110 
52 111 
52 114 
52 115 
52 118 
52 119 
52 122 
52 123 
52 125 
52 127 
52 130 
52 132 
52 134 
52 136 
52 137 
52 140 
52 142 
52 143 
52 145 
52 148 
52 149 
52 152 
52 153 
52 155 
52 157 
52 160 
52 162 
52 163 
52 165 
52 167 
52 170 
52 172 
52 174 
52 175 
53 54 
53 90 
53 92 
53 93 
53 96 
53 98 
53 100 
53 101 
53 103 
53 105 
53 107 
53 109 
53 112 
53 113 
53 115 
53 117 
53 120 
53 121 
53 124 
53 126 
53 128 
53 130 
53 132 
53 134 
53 136 
53 137 
53 139 
53 141 
53 143 
53 145 
53 148 
53 150 
53 152 
53 153 
53 156 
53 157 
53 159 
53 162 
53 164 
53 165 
53 167 
53 169 
53 171 
53 173 
53 176 
54 89 
54 91 
54 94 
54 95 
54 97 
54 99 
54 102 
54 104 
54 106 
54 108 
54 110 
54 111 
54 114 
54 116 
54 118 
54 119 
54 122 
54 123 
54 125 
54 127 
54 129 
54 131 
54 133 
54 135 
54 138 
54 140 
54 142 
54 144 
54 146 
54 147 
54 149 
54 151 
54 154 
54 155 
54 158 
54 160 
54 161 
54 163 
54 166 
54 168 
54 170 
54 172 
54 174 
54 175 
55 56 
55 89 
55 91 
55 94 
55 95 
55 98 
55 100 
55 102 
55 104 
55 105 
55 108 
55 110 
55 111 
55 114 
55 116 
55 117 
55 120 
55 121 
55 123 
55 126 
55 127 
55 130 
55 132 
55 134 
55 136 
55 138 
55 140 
55 141 
55 143 
55 145 
55 148 
55 150 
55 151 
55 153 
55 155 
55 157 
55 160 
55 161 
55 163 
55 165 
55 168 
55 170 
55 171 
55 173 
55 176 
56 90 
56 92 
56 93 
56 96 
56 97 
56 99 
56 101 
56 103 
56 106 
56 107 
56 109 
56 112 
56 113 
56 115 
56 118 
56 119 
56 122 
56 124 
56 125 
56 128 
56 129 
56 131 
56 133 
56 135 
56 137 
56 139 
56 142 
56 144 
56 146 
56 147 
56 149 
56 152 
56 154 
56 156 
56 158 
56 159 
56 162 
56 164 
56 166 
56 167 
56 169 
56 172 
56 174 
56 175 
57 58 
57 89 
57 92 
57 93 
57 95 
57 97 
57 100 
57 102 
57 103 
57 105 
57 108 
57 110 
57 112 
57 114 
57 115 
57 117 
57 120 
57 121 
57 124 
57 126 
57 128 
57 129 
57 131 
57 133 
57 135 
57 138 
57 140 
57 142 
57 143 
57 146 
57 147 
57 150 
57 152 
57 153 
57 155 
57 157 
57 160 
57 162 
57 164 
57 165 
57 167 
57 170 
57 172 
57 174 
57 175 
58 90 
58 91 
58 94 
58 96 
58 98 
58 99 
58 101 
58 104 
58 106 
58 107 
58 109 
58 111 
58 113 
58 116 
58 118 
58 119 
58 122 
58 123 
58 125 
58 127 
58 130 
58 132 
58 134 
58 136 
58 137 
58 139 
58 141 
58 144 
58 145 
58 148 
58 149 
58 151 
58 154 
58 156 
58 158 
58 159 
58 161 
58 163 
58 166 
58 168 
58 169 
58 171 
58 173 
58 176 
59 60 
59 90 
59 91 
59 93 
59 95 
59 97 
59 100 
59 101 
59 104 
59 105 
59 107 
59 109 
59 111 
59 114 
59 116 
59 117 
59 119 
59 122 
59 123 
59 125 
59 128 
59 129 
59 131 
59 133 
59 136 
59 138 
59 140 
59 142 
59 143 
59 145 
59 148 
59 150 
59 152 
59 154 
59 156 
59 158 
59 160 
59 161 
59 164 
59 165 
59 167 
59 169 
59 171 
59 174 
59 176 
60 89 
60 92 
60 94 
60 96 
60 98 
60 99 
60 102 
60 103 
60 106 
60 108 
60 110 
60 112 
60 113 
60 115 
60 118 
60 120 
60 121 
60 124 
60 126 
60 127 
60 130 
60 132 
60 134 
60 135 
60 137 
60 139 
60 141 
60 144 
60 146 
60 147 
60 149 
60 151 
60 153 
60 155 
60 157 
60 159 
60 162 
60 163 
60 166 
60 168 
60 170 
60 172 
60 173 
60 175 
61 62 
61 90 
61 91 
61 93 
61 95 
61 98 
61 99 
61 101 
61 103 
61 106 
61 108 
61 110 
61 112 
61 113 
61 116 
61 118 
61 119 
61 121 
61 123 
61 125 
61 127 
61 129 
61 131 
61 133 
61 135 
61 138 
61 139 
61 141 
61 143 
61 146 
61 148 
61 150 
61 152 
61 153 
61 156 
61 157 
61 160 
61 162 
61 164 
61 166 
61 168 
61 170 
61 171 
61 173 
61 176 
62 89 
62 92 
62 94 
62 96 
62 97 
62 100 
62 102 
62 104 
62 105 
62 107 
62 109 
62 111 
62 114 
62 115 
62 117 
62 120 
62 122 
62 124 
62 126 
62 128 
62 130 
62 132 
62 134 
62 136 
62 137 
62 140 
62 142 
62 144 
62 145 
62 147 
62 149 
62 151 
62 154 
62 155 
62 158 
62 159 
62 161 
62 163 
62 165 
62 167 
62 169 
62 172 
62 174 
62 175 
63 64 
63 89 
63 92 
63 93 
63 96 
63 97 
63 99 
63 101 
63 103 
63 105 
63 107 
63 110 
63 112 
63 114 
63 116 
63 118 
63 120 
63 122 
63 123 
63 126 
63 128 
63 129 
63 132 
63 134 
63 136 
63 138 
63 139 
63 141 
63 143 
63 146 
63 147 
63 149 
63 152 
63 154 
63 155 
63 157 
63 160 
63 161 
63 163 
63 166 
63 168 
63 169 
63 171 
63 174 
63 176 
64 90 
64 91 
64 94 
64 95 
64 98 
64 100 
64 102 
64 104 
64 106 
64 108 
64 109 
64 111 
64 113 
64 115 
64 117 
64 119 
64 121 
64 124 
64 125 
64 127 
64 130 
64 131 
64 133 
64 135 
64 137 
64 140 
64 142 
64 144 
64 145 
64 148 
64 150 
64 151 
64 153 
64 156 
64 158 
64 159 
64 162 
64 164 
64 165 
64 167 
64 170 
64 172 
64 173 
64 175 
65 66 
65 89 
65 92 
65 94 
65 95 
65 98 
65 99 
65 101 
65 103 
65 106 
65 107 
65 109 
65 111 
65 114 
65 116 
65 117 
65 119 
65 122 
65 124 
65 126 
65 128 
65 129 
65 131 
65 134 
65 135 
65 137 
65 139 
65 141 
65 144 
65 146 
65 148 
65 150 
65 151 
65 154 
65 155 
65 157 
65 160 
65 161 
65 164 
65 165 
65 167 
65 170 
65 172 
65 173 
65 176 
66 90 
66 91 
66 93 
66 96 
66 97 
66 100 
66 102 
66 104 
66 105 
66 108 
66 110 
66 112 
66 113 
66 115 
66 118 
66 120 
66 121 
66 123 
66 125 
66 127 
66 130 
66 132 
66 133 
66 136 
66 138 
66 140 
66 142 
66 143 
66 145 
66 147 
66 149 
66 152 
66 153 
66 156 
66 158 
66 159 
66 162 
66 163 
66 166 
66 168 
66 169 
66 171 
66 174 
66 175 
67 68 
67 89 
67 92 
67 93 
67 96 
67 98 
67 99 
67 101 
67 103 
67 105 
67 108 
67 109 
67 112 
67 114 
67 116 
67 117 
67 119 
67 121 
67 123 
67 125 
67 127 
67 130 
67 132 
67 134 
67 135 
67 138 
67 140 
67 142 
67 144 
67 145 
67 147 
67 150 
67 152 
67 154 
67 155 
67 158 
67 159 
67 161 
67 164 
67 166 
67 167 
67 170 
67 171 
67 173 
67 175 
68 90 
68 91 
68 94 
68 95 
68 97 
68 100 
68 102 
68 104 
68 106 
68 107 
68 110 
68 111 
68 113 
68 115 
68 118 
68 120 
68 122 
68 124 
68 126 
68 128 
68 129 
68 131 
68 133 
68 136 
68 137 
68 139 
68 141 
68 143 
68 146 
68 148 
68 149 
68 151 
68 153 
68 156 
68 157 
68 160 
68 162 
68 163 
68 165 
68 168 
68 169 
68 172 
68 174 
68 176 
69 70 
69 90 
69 92 
69 93 
69 95 
69 97 
69 99 
69 101 
69 103 
69 106 
69 108 
69 109 
69 111 
69 114 
69 116 
69 117 
69 119 
69 121 
69 124 
69 126 
69 128 
69 130 
69 132 
69 133 
69 136 
69 138 
69 140 
69 141 
69 144 
69 146 
69 147 
69 149 
69 151 
69 153 
69 156 
69 158 
69 159 
69 162 
69 163 
69 165 
69 168 
69 170 
69 171 
69 174 
69 176 
70 89 
70 91 
70 94 
70 96 
70 98 
70 100 
70 102 
70 104 
70 105 
70 107 
70 110 
70 112 
70 113 
70 115 
70 118 
70 120 
70 122 
70 123 
70 125 
70 127 
70 129 
70 131 
70 134 
70 135 
70 137 
70 139 
70 142 
70 143 
70 145 
70 148 
70 150 
70 152 
70 154 
70 155 
70 157 
70 160 
70 161 
70 164 
70 166 
70 167 
70 169 
70 172 
70 173 
70 175 
71 72 
71 90 
71 92 
71 94 
71 96 
71 97 
71 100 
71 101 
71 103 
71 106 
71 108 
71 110 
71 111 
71 114 
71 115 
71 117 
71 119 
71 121 
71 124 
71 125 
71 127 
71 129 
71 132 
71 133 
71 136 
71 138 
71 139 
71 141 
71 143 
71 145 
71 148 
71 150 
71 151 
71 154 
71 155 
71 157 
71 159 
71 161 
71 164 
71 166 
71 168 
71 169 
71 172 
71 174 
71 175 
72 89 
72 91 
72 93 
72 95 
72 98 
72 99 
72 102 
72 104 
72 105 
72 107 
72 109 
72 112 
72 113 
72 116 
72 118 
72 120 
72 122 
72 123 
72 126 
72 128 
72 130 
72 131 
72 134 
72 135 
72 137 
72 140 
72 142 
72 144 
72 146 
72 147 
72 149 
72 152 
72 153 
72 156 
72 158 
72 160 
72 162 
72 163 
72 165 
72 167 
72 170 
72 171 
72 173 
72 176 
73 74 
73 89 
73 91 
73 93 
73 96 
73 97 
73 99 
73 101 
73 104 
73 105 
73 108 
73 109 
73 111 
73 114 
73 115 
73 118 
73 119 
73 121 
73 124 
73 126 
73 128 
73 130 
73 131 
73 134 
73 135 
73 137 
73 139 
73 141 
73 143 
73 145 
73 148 
73 150 
73 152 
73 153 
73 156 
73 158 
73 160 
73 161 
73 163 
73 166 
73 168 
73 170 
73 172 
73 174 
73 175 
74 90 
74 92 
74 94 
74 95 
74 98 
74 100 
74 102 
74 103 
74 106 
74 107 
74 110 
74 112 
74 113 
74 116 
74 117 
74 120 
74 122 
74 123 
74 125 
74 127 
74 129 
74 132 
74 133 
74 136 
74 138 
74 140 
74 142 
74 144 
74 146 
74 147 
74 149 
74 151 
74 154 
74 155 
74 157 
74 159 
74 162 
74 164 
74 165 
74 167 
74 169 
74 171 
74 173 
74 176 
75 76 
75 90 
75 92 
75 94 
75 95 
75 97 
75 99 
75 101 
75 104 
75 106 
75 108 
75 110 
75 112 
75 114 
75 115 
75 118 
75 120 
75 121 
75 123 
75 126 
75 128 
75 129 
75 132 
75 134 
75 135 
75 138 
75 139 
75 142 
75 144 
75 145 
75 148 
75 149 
75 151 
75 153 
75 156 
75 158 
75 160 
75 161 
75 164 
75 165 
75 167 
75 169 
75 171 
75 173 
75 175 
76 89 
76 91 
76 93 
76 96 
76 98 
76 100 
76 102 
76 103 
76 105 
76 107 
76 109 
76 111 
76 113 
76 116 
76 117 
76 119 
76 122 
76 124 
76 125 
76 127 
76 130 
76 131 
76 133 
76 136 
76 137 
76 140 
76 141 
76 143 
76 146 
76 147 
76 150 
76 152 
76 154 
76 155 
76 157 
76 159 
76 162 
76 163 
76 166 
76 168 
76 170 
76 172 
76 174 
76 176 
77 78 
77 90 
77 92 
77 93 
77 96 
77 97 
77 100 
77 102 
77 103 
77 106 
77 107 
77 109 
77 111 
77 113 
77 116 
77 118 
77 120 
77 122 
77 123 
77 126 
77 127 
77 130 
77 131 
77 134 
77 135 
77 138 
77 139 
77 142 
77 143 
77 146 
77 148 
77 150 
77 151 
77 153 
77 155 
77 158 
77 159 
77 161 
77 164 
77 165 
77 168 
77 170 
77 171 
77 174 
77 175 
78 89 
78 91 
78 94 
78 95 
78 98 
78 99 
78 101 
78 104 
78 105 
78 108 
78 110 
78 112 
78 114 
78 115 
78 117 
78 119 
78 121 
78 124 
78 125 
78 128 
78 129 
78 132 
78 133 
78 136 
78 137 
78 140 
78 141 
78 144 
78 145 
78 147 
78 149 
78 152 
78 154 
78 156 
78 157 
78 160 
78 162 
78 163 
78 166 
78 167 
78 169 
78 172 
78 173 
78 176 
79 80 
79 90 
79 91 
79 94 
79 96 
79 98 
79 100 
79 101 
79 103 
79 106 
79 108 
79 109 
79 112 
79 114 
79 115 
79 118 
79 120 
79 122 
79 123 
79 126 
79 128 
79 130 
79 131 
79 134 
79 136 
79 138 
79 140 
79 142 
79 144 
79 145 
79 147 
79 150 
79 151 
79 154 
79 156 
79 157 
79 160 
79 162 
79 164 
79 166 
79 168 
79 170 
79 172 
79 174 
79 176 
80 89 
80 92 
80 93 
80 95 
80 97 
80 99 
80 102 
80 104 
80 105 
80 107 
80 110 
80 111 
80 113 
80 116 
80 117 
80 119 
80 121 
80 124 
80 125 
80 127 
80 129 
80 132 
80 133 
80 135 
80 137 
80 139 
80 141 
80 143 
80 146 
80 148 
80 149 
80 152 
80 153 
80 155 
80 158 
80 159 
80 161 
80 163 
80 165 
80 167 
80 169 
80 171 
80 173 
80 175 
81 82 
81 90 
81 91 
81 94 
81 95 
81 97 
81 99 
81 101 
81 103 
81 105 
81 107 
81 110 
81 111 
81 113 
81 116 
81 117 
81 120 
81 121 
81 123 
81 126 
81 127 
81 130 
81 132 
81 134 
81 135 
81 137 
81 140 
81 141 
81 143 
81 146 
81 147 
81 150 
81 151 
81 154 
81 156 
81 158 
81 160 
81 162 
81 164 
81 166 
81 167 
81 169 
81 172 
81 174 
81 175 
82 89 
82 92 
82 93 
82 96 
82 98 
82 100 
82 102 
82 104 
82 106 
82 108 
82 109 
82 112 
82 114 
82 115 
82 118 
82 119 
82 122 
82 124 
82 125 
82 128 
82 129 
82 131 
82 133 
82 136 
82 138 
82 139 
82 142 
82 144 
82 145 
82 148 
82 149 
82 152 
82 153 
82 155 
82 157 
82 159 
82 161 
82 163 
82 165 
82 168 
82 170 
82 171 
82 173 
82 176 
83 84 
83 90 
83 91 
83 93 
83 96 
83 98 
83 99 
83 101 
83 104 
83 106 
83 107 
83 110 
83 112 
83 114 
83 116 
83 117 
83 120 
83 122 
83 124 
83 125 
83 128 
83 129 
83 131 
83 134 
83 135 
83 138 
83 140 
83 141 
83 143 
83 145 
83 147 
83 150 
83 151 
83 153 
83 155 
83 158 
83 159 
83 162 
83 163 
83 165 
83 168 
83 169 
83 172 
83 173 
83 175 
84 89 
84 92 
84 94 
84 95 
84 97 
84 100 
84 102 
84 103 
84 105 
84 108 
84 109 
84 111 
84 113 
84 115 
84 118 
84 119 
84 121 
84 123 
84 126 
84 127 
84 130 
84 132 
84 133 
84 136 
84 137 
84 139 
84 142 
84 144 
84 146 
84 148 
84 149 
84 152 
84 154 
84 156 
84 157 
84 160 
84 161 
84 164 
84 166 
84 167 
84 170 
84 171 
84 174 
84 176 
85 86 
85 90 
85 91 
85 93 
85 95 
85 97 
85 100 
85 101 
85 104 
85 105 
85 107 
85 110 
85 112 
85 114 
85 115 
85 117 
85 119 
85 122 
85 123 
85 126 
85 128 
85 130 
85 132 
85 133 
85 135 
85 137 
85 139 
85 142 
85 144 
85 146 
85 148 
85 150 
85 151 
85 154 
85 155 
85 157 
85 159 
85 162 
85 163 
85 166 
85 168 
85 170 
85 171 
85 173 
85 175 
86 89 
86 92 
86 94 
86 96 
86 98 
86 99 
86 102 
86 103 
86 106 
86 108 
86 109 
86 111 
86 113 
86 116 
86 118 
86 120 
86 121 
86 124 
86 125 
86 127 
86 129 
86 131 
86 134 
86 136 
86 138 
86 140 
86 141 
86 143 
86 145 
86 147 
86 149 
86 152 
86 153 
86 156 
86 158 
86 160 
86 161 
86 164 
86 165 
86 167 
86 169 
86 172 
86 174 
86 176 
87 88 
87 90 
87 91 
87 94 
87 95 
87 98 
87 99 
87 101 
87 104 
87 106 
87 108 
87 109 
87 112 
87 114 
87 116 
87 118 
87 120 
87 121 
87 124 
87 126 
87 127 
87 130 
87 131 
87 133 
87 136 
87 137 
87 139 
87 142 
87 143 
87 146 
87 147 
87 150 
87 152 
87 154 
87 155 
87 157 
87 159 
87 161 
87 163 
87 165 
87 167 
87 169 
87 171 
87 174 
87 175 
88 89 
88 92 
88 93 
88 96 
88 97 
88 100 
88 102 
88 103 
88 105 
88 107 
88 110 
88 111 
88 113 
88 115 
88 117 
88 119 
88 122 
88 123 
88 125 
88 128 
88 129 
88 132 
88 134 
88 135 
88 138 
88 140 
88 141 
88 144 
88 145 
88 148 
88 149 
88 151 
88 153 
88 156 
88 158 
88 160 
88 162 
88 164 
88 166 
88 168 
88 170 
88 172 
88 173 
88 176 
89 90 
91 92 
93 94 
95 96 
97 98 
99 100 
101 102 
103 104 
105 106 
107 108 
109 110 
111 112 
113 114 
115 116 
117 118 
119 120 
121 122 
123 124 
125 126 
127 128 
129 130 
131 132 
133 134 
135 136 
137 138 
139 140 
141 142 
143 144 
145 146 
147 148 
149 150 
151 152 
153 154 
155 156 
157 158 
159 160 
161 162 
163 164 
165 166 
167 168 
169 170 
171 172 
173 174 
175 176 
